************************************************************************
file with basedata            : md379_.bas
initial value random generator: 1948729582
************************************************************************
projects                      :  1
jobs (incl. supersource/sink ):  22
horizon                       :  163
RESOURCES
  - renewable                 :  2   R
  - nonrenewable              :  2   N
  - doubly constrained        :  0   D
************************************************************************
PROJECT INFORMATION:
pronr.  #jobs rel.date duedate tardcost  MPM-Time
    1     20      0       30       13       30
************************************************************************
PRECEDENCE RELATIONS:
jobnr.    #modes  #successors   successors
   1        1          3           2   3   4
   2        3          1          12
   3        3          3           5   6  10
   4        3          2           5  10
   5        3          2           9  15
   6        3          3           7   9  15
   7        3          3           8  11  12
   8        3          1          21
   9        3          3          16  17  21
  10        3          3          13  14  16
  11        3          2          17  19
  12        3          2          13  16
  13        3          2          17  19
  14        3          2          18  21
  15        3          2          18  19
  16        3          1          18
  17        3          1          20
  18        3          1          20
  19        3          1          22
  20        3          1          22
  21        3          1          22
  22        1          0        
************************************************************************
REQUESTS/DURATIONS:
jobnr. mode duration  R 1  R 2  N 1  N 2
------------------------------------------------------------------------
  1      1     0       0    0    0    0
  2      1     1       0    8    3    8
         2     5       0    7    3    8
         3    10       3    0    2    7
  3      1     5       0    6    7    5
         2     6       0    5    6    4
         3     7       0    2    2    4
  4      1     2       0    5    8    7
         2     4       3    0    6    7
         3     7       0    4    4    7
  5      1     5       0   10    9    9
         2     6       0    8    8    9
         3     7       0    8    7    9
  6      1     5       6    0    6    5
         2     5       0    7    6    5
         3     9       6    0    4    4
  7      1     1       7    0    8    8
         2     1       0   10    8    6
         3     8       8    0    8    5
  8      1     3       6    0    6    2
         2     7       5    0    3    1
         3    10       0    5    2    1
  9      1     2       2    0    9    8
         2     3       0   10    7    6
         3    10       2    0    6    5
 10      1     1       0   10    9    8
         2     3       0    9    8    8
         3     6       9    0    8    8
 11      1     3       6    0    7    7
         2     5       6    0    7    6
         3     9       5    0    6    5
 12      1     2       7    0    3    8
         2     6       0   10    2    8
         3     9       0    8    2    8
 13      1     8       9    0    8    7
         2     8       0    5    9    8
         3    10       8    0    8    6
 14      1     1       9    0    8    4
         2     1       0    2   10    4
         3     5       9    0    6    4
 15      1     5       8    0   10    5
         2     8       0    8    5    5
         3     8       8    0    6    5
 16      1     1       0    9    8    4
         2     6       4    0    6    3
         3     9       0    8    5    1
 17      1     4       5    0    5    5
         2     6       2    0    5    5
         3     7       0    4    4    4
 18      1     6       5    0    5    6
         2     8       0    5    3    5
         3     9       0    4    3    4
 19      1     1      10    0    2    8
         2     4      10    0    1    8
         3     7       0    3    1    8
 20      1     5      10    0    6    6
         2     5       0    6    7    7
         3    10       0    6    6    4
 21      1     2       0    9    6    8
         2     4       4    0    3    8
         3     6       3    0    2    6
 22      1     0       0    0    0    0
************************************************************************
RESOURCEAVAILABILITIES:
  R 1  R 2  N 1  N 2
   22   27  137  130
************************************************************************
MAXIMAL LAGS:
from  to  type  delay
    1   22   ES      0
    1    2   ES      0
    2   22   ES      0
    1    3   ES      0
    3   22   ES      0
    1    4   ES      0
    4   22   ES      0
    1    5   ES      0
    5   22   ES      0
    1    6   ES      0
    6   22   ES      0
    1    7   ES      0
    7   22   ES      0
    1    8   ES      0
    8   22   ES      0
    1    9   ES      0
    9   22   ES      0
    1   10   ES      0
   10   22   ES      0
    1   11   ES      0
   11   22   ES      0
    1   12   ES      0
   12   22   ES      0
    1   13   ES      0
   13   22   ES      0
    1   14   ES      0
   14   22   ES      0
    1   15   ES      0
   15   22   ES      0
    1   16   ES      0
   16   22   ES      0
    1   17   ES      0
   17   22   ES      0
    1   18   ES      0
   18   22   ES      0
    1   19   ES      0
   19   22   ES      0
    1   20   ES      0
   20   22   ES      0
    1   21   ES      0
   21   22   ES      0
    1   22   ES      0
    2   12   SS    -12
    2   12   SE     -1
    2   12   ES      2
    2   12   EE     -4
    3    5   SS      9
    3    5   SE     -2
    3    5   ES     10
    3    5   EE      4
    3    6   SS    -11
    3    6   SE      3
    3    6   ES      1
    3    6   EE      1
    3   10   SS     -3
    3   10   SE      5
    3   10   ES      2
    3   10   EE      4
    4    5   SS     -3
    4    5   SE     -9
    4    5   ES     -5
    4    5   EE      5
    4   10   SS      9
    4   10   SE     -5
    4   10   ES     -9
    4   10   EE     -7
    5    9   SS      2
    5    9   SE      1
    5    9   ES    -11
    5    9   EE      3
    5   15   SS      5
    5   15   SE     12
    5   15   ES     -5
    5   15   EE     -6
    6    7   SS     -1
    6    7   SE      7
    6    7   ES     -3
    6    7   EE      5
    6    9   SS     -7
    6    9   SE      8
    6    9   ES     -8
    6    9   EE     -4
    6   15   SS     -1
    6   15   SE     -8
    6   15   ES     -3
    6   15   EE     12
    7    8   SS      5
    7    8   SE      5
    7    8   ES     -9
    7    8   EE      0
    7   11   SS    -12
    7   11   SE      9
    7   11   ES     -6
    7   11   EE     -1
    7   12   SS     -5
    7   12   SE     -3
    7   12   ES     -9
    7   12   EE      3
    8   21   SS      1
    8   21   SE     10
    8   21   ES     -1
    8   21   EE     -3
    9   16   SS      1
    9   16   SE     -9
    9   16   ES     -4
    9   16   EE     -9
    9   17   SS     -9
    9   17   SE      8
    9   17   ES     12
    9   17   EE      6
    9   21   SS      8
    9   21   SE     -9
    9   21   ES    -11
    9   21   EE      8
   10   13   SS     -9
   10   13   SE     -3
   10   13   ES      9
   10   13   EE     12
   10   14   SS      2
   10   14   SE     -5
   10   14   ES      6
   10   14   EE      8
   10   16   SS      9
   10   16   SE      9
   10   16   ES    -10
   10   16   EE      8
   11   17   SS     -7
   11   17   SE      6
   11   17   ES      4
   11   17   EE      8
   11   19   SS     -5
   11   19   SE     -2
   11   19   ES      4
   11   19   EE     -4
   12   13   SS     -3
   12   13   SE      5
   12   13   ES     10
   12   13   EE    -12
   12   16   SS      9
   12   16   SE     -9
   12   16   ES     -8
   12   16   EE      2
   13   17   SS      3
   13   17   SE    -10
   13   17   ES     -8
   13   17   EE      2
   13   19   SS      3
   13   19   SE     10
   13   19   ES     -9
   13   19   EE     -2
   14   18   SS      0
   14   18   SE      8
   14   18   ES      4
   14   18   EE     -2
   14   21   SS     -6
   14   21   SE      7
   14   21   ES    -12
   14   21   EE      6
   15   18   SS     -9
   15   18   SE      9
   15   18   ES      2
   15   18   EE     -3
   15   19   SS     -4
   15   19   SE      3
   15   19   ES      6
   15   19   EE     -4
   16   18   SS    -12
   16   18   SE      4
   16   18   ES    -12
   16   18   EE      9
   17   20   SS     -6
   17   20   SE    -12
   17   20   ES     12
   17   20   EE      5
   18   20   SS      7
   18   20   SE     11
   18   20   ES     -7
   18   20   EE     -7
************************************************************************
